lattice_vector 21.6699390411000010 0.0000000000000000 0.0000000000000000 
lattice_vector -10.8349695205999996 18.7667179108000006 0.0000000000000000 
lattice_vector 0.0000000000000000 0.0000000000000000 3.2586994170999999 
atom_frac 0.2664984760000000 0.5997657180000000 0.9991652970000000 C
atom_frac 0.5345335600000000 0.3981329200000000 0.9971528650000000 C
atom_frac 0.3340194820000000 0.5356679559999999 0.0042433890000000 C
atom_frac 0.4002342520000001 0.6667327880000000 0.9991652970000000 C
atom_frac 0.6018670800000000 0.1364006850000000 0.9971528650000000 C
atom_frac 0.4643320740000000 0.7983515260000000 0.0042433890000000 C
atom_frac 0.3332672720000001 0.7335014940000000 0.9991652970000000 C
atom_frac 0.8635993000000001 0.4654664100000000 0.9971528650000000 C
atom_frac 0.2016484739999999 0.6659805769999999 0.0042433890000000 C
atom_frac 0.7335014940000000 0.4002342520000000 0.9991652970000000 C
atom_frac 0.4654664100000001 0.6018670800000000 0.9971528650000000 C
atom_frac 0.6659805770000000 0.4643320739999999 0.0042433890000000 C
atom_frac 0.5997657180000000 0.3332672720000000 0.9991652970000000 C
atom_frac 0.3981329200000000 0.8635993000000000 0.9971528650000000 C
atom_frac 0.5356679560000001 0.2016484740000000 0.0042433890000000 C
atom_frac 0.6667327880000001 0.2664984760000000 0.9991652970000000 C
atom_frac 0.1364006850000000 0.5345335600000000 0.9971528650000000 C
atom_frac 0.7983515260000001 0.3340194820000000 0.0042433890000000 C
atom_frac 0.5997657180000000 0.2664984760000000 0.0008347090000000 C
atom_frac 0.3981329200000000 0.5345335600000000 0.0028471530000000 C
atom_frac 0.5356679559999999 0.3340194820000000 0.9957566260000001 C
atom_frac 0.6667327880000000 0.4002342520000000 0.0008347090000000 C
atom_frac 0.1364006850000000 0.6018670800000000 0.0028471530000000 C
atom_frac 0.7983515260000001 0.4643320739999999 0.9957566260000001 C
atom_frac 0.7335014940000001 0.3332672720000000 0.0008347090000000 C
initial_moment 1.0
atom_frac 0.4654664100000001 0.8635993000000000 0.0028471530000000 C
atom_frac 0.6659805770000001 0.2016484740000000 0.9957566260000001 C
atom_frac 0.4002342520000001 0.7335014940000000 0.0008347090000000 C
initial_moment 1.0
atom_frac 0.6018670800000000 0.4654664100000000 0.0028471530000000 C
atom_frac 0.4643320739999999 0.6659805769999999 0.9957566260000001 C
atom_frac 0.3332672720000001 0.5997657180000000 0.0008347090000000 C
atom_frac 0.8635993000000001 0.3981329200000000 0.0028471530000000 C
atom_frac 0.2016484740000000 0.5356679559999999 0.9957566260000001 C
atom_frac 0.2664984760000000 0.6667327880000000 0.0008347090000000 C
atom_frac 0.5345335599999999 0.1364006850000000 0.0028471530000000 C
atom_frac 0.3340194820000000 0.7983515260000000 0.9957566260000001 C
atom_frac 0.0748541800000000 0.4772080479999999 0.9943271880000000 O
atom_frac 0.5227909680000000 0.5976451040000000 0.9943271880000000 O
atom_frac 0.4023548660000000 0.9251458050000000 0.9943271880000000 O
atom_frac 0.9251458050000000 0.5227909680000000 0.9943271880000000 O
atom_frac 0.4772080480000001 0.4023548660000000 0.9943271880000000 O
atom_frac 0.5976451040000001 0.0748541800000000 0.9943271880000000 O
atom_frac 0.4772090320000000 0.0748541800000000 0.0056727850000000 O
atom_frac 0.5976451040000001 0.5227909680000000 0.0056727850000000 O
atom_frac 0.9251458050000000 0.4023548660000000 0.0056727850000000 O
atom_frac 0.5227909680000000 0.9251458050000000 0.0056727850000000 O
atom_frac 0.4023548660000000 0.4772080479999999 0.0056727850000000 O
atom_frac 0.0748541800000000 0.5976451040000000 0.0056727850000000 O
atom_frac 0.5000000000000000 0.5000000000000000 0.0000000000000000 Cu
initial_moment 1.0
atom_frac 0.5000000000000000 0.0000000000000000 0.0000000000000000 Cu
initial_moment 1.0
atom_frac 0.0000000000000000 0.5000000000000000 0.0000000000000000 Cu
initial_moment 1.0
atom_frac 0.5159379240000002 0.7150608899999999 0.9916223880000001 H
atom_frac 0.2849391100000000 0.8008760210000000 0.9916223880000001 H
atom_frac 0.1991229360000000 0.4840620460000000 0.9916223880000001 H
atom_frac 0.4840620460000001 0.2849391100000000 0.9916223880000001 H
atom_frac 0.7150608900000001 0.1991229360000000 0.9916223880000001 H
atom_frac 0.8008770350000000 0.5159379240000000 0.9916223880000001 H
atom_frac 0.7150608900000001 0.5159379240000000 0.0083776410000000 H
atom_frac 0.8008770350000000 0.2849391100000000 0.0083776410000000 H
atom_frac 0.4840620460000001 0.1991229360000000 0.0083776410000000 H
atom_frac 0.2849391100000000 0.4840620460000000 0.0083776410000000 H
atom_frac 0.1991229360000000 0.7150608899999999 0.0083776410000000 H
atom_frac 0.5159379240000000 0.8008760210000000 0.0083776410000000 H
