lattice_vector  21.6699390411  0.0000000000  0.0000000000
lattice_vector -10.8349695206 18.7667179108  0.0000000000
lattice_vector  -0.6000000000 -0.6900000000  3.3000000000
atom_frac  0.266498476  0.599765718  0.999165297 C  
atom_frac  0.534533560  0.398132920  0.997152865 C  
atom_frac  0.334019482  0.535667956  0.004243389 C  
atom_frac  0.400234252  0.666732788  0.999165297 C  
atom_frac  0.601867080  0.136400685  0.997152865 C  
atom_frac  0.464332074  0.798351526  0.004243389 C  
atom_frac  0.333267272  0.733501494  0.999165297 C  
atom_frac  0.863599300  0.465466410  0.997152865 C  
atom_frac  0.201648474  0.665980577  0.004243389 C  
atom_frac  0.733501494  0.400234252  0.999165297 C  
atom_frac  0.465466410  0.601867080  0.997152865 C  
atom_frac  0.665980577  0.464332074  0.004243389 C  
atom_frac  0.599765718  0.333267272  0.999165297 C  
atom_frac  0.398132920  0.863599300  0.997152865 C  
atom_frac  0.535667956  0.201648474  0.004243389 C  
atom_frac  0.666732788  0.266498476  0.999165297 C  
atom_frac  0.136400685  0.534533560  0.997152865 C  
atom_frac  0.798351526  0.334019482  0.004243389 C  
atom_frac  0.599765718  0.266498476  0.000834709 C  
atom_frac  0.398132920  0.534533560  0.002847153 C  
atom_frac  0.535667956  0.334019482  0.995756626 C  
atom_frac  0.666732788  0.400234252  0.000834709 C  
atom_frac  0.136400685  0.601867080  0.002847153 C  
atom_frac  0.798351526  0.464332074  0.995756626 C  
atom_frac  0.733501494  0.333267272  0.000834709 C  
initial_moment 1.0
atom_frac  0.465466410  0.863599300  0.002847153 C  
atom_frac  0.665980577  0.201648474  0.995756626 C  
atom_frac  0.400234252  0.733501494  0.000834709 C  
initial_moment 1.0
atom_frac  0.601867080  0.465466410  0.002847153 C  
atom_frac  0.464332074  0.665980577  0.995756626 C  
atom_frac  0.333267272  0.599765718  0.000834709 C  
atom_frac  0.863599300  0.398132920  0.002847153 C  
atom_frac  0.201648474  0.535667956  0.995756626 C  
atom_frac  0.266498476  0.666732788  0.000834709 C  
atom_frac  0.534533560  0.136400685  0.002847153 C  
atom_frac  0.334019482  0.798351526  0.995756626 C  
atom_frac  0.074854180  0.477208048  0.994327188 O  
atom_frac  0.522790968  0.597645104  0.994327188 O  
atom_frac  0.402354866  0.925145805  0.994327188 O  
atom_frac  0.925145805  0.522790968  0.994327188 O  
atom_frac  0.477208048  0.402354866  0.994327188 O  
atom_frac  0.597645104  0.074854180  0.994327188 O  
atom_frac  0.477209032  0.074854180  0.005672785 O  
atom_frac  0.597645104  0.522790968  0.005672785 O  
atom_frac  0.925145805  0.402354866  0.005672785 O  
atom_frac  0.522790968  0.925145805  0.005672785 O  
atom_frac  0.402354866  0.477208048  0.005672785 O  
atom_frac  0.074854180  0.597645104  0.005672785 O  
atom_frac  0.500000000  0.500000000  0.000000000 Cu 
initial_moment 1.0
atom_frac  0.500000000  0.000000000  0.000000000 Cu 
initial_moment 1.0
atom_frac  0.000000000  0.500000000  0.000000000 Cu 
initial_moment 1.0
atom_frac  0.515937924  0.715060890  0.991622388 H  
atom_frac  0.284939110  0.800876021  0.991622388 H  
atom_frac  0.199122936  0.484062046  0.991622388 H  
atom_frac  0.484062046  0.284939110  0.991622388 H  
atom_frac  0.715060890  0.199122936  0.991622388 H  
atom_frac  0.800877035  0.515937924  0.991622388 H  
atom_frac  0.715060890  0.515937924  0.008377641 H  
atom_frac  0.800877035  0.284939110  0.008377641 H  
atom_frac  0.484062046  0.199122936  0.008377641 H  
atom_frac  0.284939110  0.484062046  0.008377641 H  
atom_frac  0.199122936  0.715060890  0.008377641 H  
atom_frac  0.515937924  0.800876021  0.008377641 H  
